(declare-fun bvlambda_27_ ()Bool         )
(declare-fun bvlambda_28_ () (_ BitVec 2))
(declare-fun a143 () (Array (_ BitVec 1) (_ BitVec 12)))
(assert
(let (($e21 (_ bv0 9)))
(let (($e36 (_ bv0    12)))
(let (($e164 (concat        $e21 false        )))
(let (($e165 (concat $e164 bvlambda_28_)))
(let (($e167 (store a143 true        $e165)))
(let (($e168 (store $e167 bvlambda_27_ $e36)))
(
                 extract(select $e168 true)
                                                                                                                                                                                                                                                                                                                                                                                                                                                                                                                                                                                                                                                                                                                                                                                                                                                                                                                                                                                                                                                                                                                                                                                                                                                                       )                                                                                                                                                                                                                                                                                                                                                                                                                                                             )) ))                                                                                       )              )                    )
